c defined variables: 37 38 39 40 41 42 43 46 47 48 49 50 51 52 53 54 57 58 59 62 63 64 65 66 67 68 69 70 71 74 75 76 77 78 79 80 81 82 83 86 87 88 89 90 91 92 93 94 95 98 99 100 101 102 103 104 105 106 107 110 111 112 113 114 115 116 117 118 119 122 123 124 125 126 127 128 129 130 131 134 135 136 137 138 139 140 141 142 143 146 147 148 149 150 151 152 153 154 155 158 159 160 161 162 163 164 165 166 167 168 169 170 171 
p cnf 685 951
a 11 12 13 14 15 16 17 18 19 20 21 22 23 24 25 26 27 28 29 30 31 32 33 34 0
e 44 45 55 56 60 61 72 73 84 85 96 97 108 109 120 121 132 133 144 145 156 157 37 38 39 40 41 42 43 46 47 48 49 50 51 52 53 54 57 58 59 62 63 64 65 66 67 68 69 70 71 74 75 76 77 78 79 80 81 82 83 86 87 88 89 90 91 92 93 94 95 98 99 100 101 102 103 104 105 106 107 110 111 112 113 114 115 116 117 118 119 122 123 124 125 126 127 128 129 130 131 134 135 136 137 138 139 140 141 142 143 146 147 148 149 150 151 152 153 154 155 158 159 160 161 162 163 164 165 166 167 168 169 170 171 579 580 581 582 583 584 585 586 587 588 589 590 591 592 593 594 595 596 597 598 599 600 601 602 603 604 605 606 607 608 609 610 611 612 613 614 615 616 617 618 619 620 621 622 623 624 625 626 627 628 629 630 631 632 633 634 635 636 637 638 639 640 641 642 643 644 645 646 647 648 649 650 651 652 653 654 655 656 657 658 659 660 661 662 663 664 665 666 667 668 669 670 671 672 673 674 675 676 677 678 679 680 681 682 683 684 685 0
d 1 11 12 13 14 15 16 17 18 19 20 21 22 23 24 25 26 27 28 29 30 31 32 0
d 2 11 12 13 14 15 16 17 18 19 20 21 22 23 24 25 26 27 28 29 30 31 32 0
d 3 11 12 13 14 15 16 17 18 19 20 21 22 23 24 25 26 27 28 29 30 31 32 0
d 4 11 12 13 14 15 16 17 18 19 20 21 22 23 24 25 26 27 28 29 30 31 32 0
d 5 11 12 13 14 15 16 17 18 19 20 21 22 23 24 25 26 27 28 29 30 31 32 0
d 6 11 12 13 14 15 16 17 18 19 20 21 22 23 24 25 26 27 28 29 30 31 32 0
d 7 11 12 13 14 15 16 17 18 19 20 21 22 23 24 25 26 27 28 29 30 31 32 0
d 8 11 12 13 14 15 16 17 18 19 20 21 22 23 24 25 26 27 28 29 30 31 32 0
d 9 11 12 13 14 15 16 17 18 19 20 21 22 23 24 25 26 27 28 29 30 31 32 0
d 10 11 12 13 14 15 16 17 18 19 20 21 22 23 24 25 26 27 28 29 30 31 32 0
d 35 31 32 0
d 36 33 34 0
580 -37 0
-580 37 0
581 -38 0
-581 38 0
582 -39 0
-582 39 0
583 -40 0
-583 40 0
584 -41 0
-584 41 0
585 -42 0
-585 42 0
586 -43 0
-586 43 0
587 -46 0
-587 46 0
-579 -47 0
579 47 0
588 -48 0
-588 48 0
589 -49 0
-589 49 0
590 -50 0
-590 50 0
591 -51 0
-591 51 0
-592 -52 0
592 52 0
593 -53 0
-593 53 0
594 -54 0
-594 54 0
595 -57 0
-595 57 0
596 -58 0
-596 58 0
-597 -59 0
597 59 0
598 -62 0
-598 62 0
599 -63 0
-599 63 0
600 -64 0
-600 64 0
-601 -65 0
601 65 0
602 -66 0
-602 66 0
603 -67 0
-603 67 0
604 -68 0
-604 68 0
-605 -69 0
605 69 0
606 -70 0
-606 70 0
607 -71 0
-607 71 0
608 -74 0
-608 74 0
609 -75 0
-609 75 0
610 -76 0
-610 76 0
-611 -77 0
611 77 0
612 -78 0
-612 78 0
613 -79 0
-613 79 0
614 -80 0
-614 80 0
-615 -81 0
615 81 0
616 -82 0
-616 82 0
617 -83 0
-617 83 0
618 -86 0
-618 86 0
619 -87 0
-619 87 0
620 -88 0
-620 88 0
-621 -89 0
621 89 0
622 -90 0
-622 90 0
623 -91 0
-623 91 0
624 -92 0
-624 92 0
-625 -93 0
625 93 0
626 -94 0
-626 94 0
627 -95 0
-627 95 0
628 -98 0
-628 98 0
629 -99 0
-629 99 0
630 -100 0
-630 100 0
-631 -101 0
631 101 0
632 -102 0
-632 102 0
633 -103 0
-633 103 0
634 -104 0
-634 104 0
-635 -105 0
635 105 0
636 -106 0
-636 106 0
637 -107 0
-637 107 0
638 -110 0
-638 110 0
639 -111 0
-639 111 0
640 -112 0
-640 112 0
-641 -113 0
641 113 0
642 -114 0
-642 114 0
643 -115 0
-643 115 0
644 -116 0
-644 116 0
-645 -117 0
645 117 0
646 -118 0
-646 118 0
647 -119 0
-647 119 0
648 -122 0
-648 122 0
649 -123 0
-649 123 0
650 -124 0
-650 124 0
-651 -125 0
651 125 0
652 -126 0
-652 126 0
653 -127 0
-653 127 0
654 -128 0
-654 128 0
-655 -129 0
655 129 0
656 -130 0
-656 130 0
657 -131 0
-657 131 0
658 -134 0
-658 134 0
659 -135 0
-659 135 0
660 -136 0
-660 136 0
-661 -137 0
661 137 0
662 -138 0
-662 138 0
663 -139 0
-663 139 0
664 -140 0
-664 140 0
-665 -141 0
665 141 0
666 -142 0
-666 142 0
667 -143 0
-667 143 0
668 -146 0
-668 146 0
669 -147 0
-669 147 0
670 -148 0
-670 148 0
-671 -149 0
671 149 0
672 -150 0
-672 150 0
673 -151 0
-673 151 0
674 -152 0
-674 152 0
-675 -153 0
675 153 0
676 -154 0
-676 154 0
677 -155 0
-677 155 0
678 -158 0
-678 158 0
679 -159 0
-679 159 0
680 -160 0
-680 160 0
681 -161 0
-681 161 0
682 -162 0
-682 162 0
683 -163 0
-683 163 0
-579 -164 0
579 164 0
684 -165 0
-684 165 0
-579 -166 0
579 166 0
685 -167 0
-685 167 0
-579 -168 0
579 168 0
579 -169 0
-579 169 0
579 -170 0
-579 170 0
579 -171 0
-579 171 0
-37 -33 0
-37 31 0
37 33 -31 0
-38 33 0
-38 -31 0
38 -33 31 0
-39 -37 0
-39 -38 0
39 37 38 0
-40 -34 0
-40 32 0
40 34 -32 0
-41 34 0
-41 -32 0
41 -34 32 0
-42 -40 0
-42 -41 0
42 40 41 0
-43 39 0
-43 42 0
43 -39 -42 0
-44 36 0
-44 -35 0
44 -36 35 0
-45 -36 0
-45 35 0
45 36 -35 0
-46 -44 0
-46 -45 0
46 44 45 0
-47 43 0
-47 -46 0
47 -43 46 0
-48 21 0
-48 11 0
48 -21 -11 0
-49 22 0
-49 48 0
49 -22 -48 0
-50 -22 0
-50 -48 0
50 22 48 0
-51 -49 0
-51 -50 0
51 49 50 0
52 -12 0
52 51 0
-52 12 -51 0
-53 12 0
-53 -51 0
53 -12 51 0
-54 52 0
-54 -53 0
54 -52 53 0
-55 2 0
-55 54 0
55 -2 -54 0
-56 -2 0
-56 -54 0
56 2 54 0
-57 -55 0
-57 -56 0
57 55 56 0
-58 -21 0
-58 -11 0
58 21 11 0
59 -48 0
59 -58 0
-59 48 58 0
-60 1 0
-60 59 0
60 -1 -59 0
-61 -1 0
-61 -59 0
61 1 59 0
-62 -60 0
-62 -61 0
62 60 61 0
-63 57 0
-63 62 0
63 -57 -62 0
-64 -12 0
-64 -49 0
64 12 49 0
65 -50 0
65 -64 0
-65 50 64 0
-66 23 0
-66 -65 0
66 -23 65 0
-67 -23 0
-67 65 0
67 23 -65 0
-68 -66 0
-68 -67 0
68 66 67 0
69 -13 0
69 68 0
-69 13 -68 0
-70 13 0
-70 -68 0
70 -13 68 0
-71 69 0
-71 -70 0
71 -69 70 0
-72 3 0
-72 71 0
72 -3 -71 0
-73 -3 0
-73 -71 0
73 3 71 0
-74 -72 0
-74 -73 0
74 72 73 0
-75 63 0
-75 74 0
75 -63 -74 0
-76 -13 0
-76 -66 0
76 13 66 0
77 -67 0
77 -76 0
-77 67 76 0
-78 24 0
-78 -77 0
78 -24 77 0
-79 -24 0
-79 77 0
79 24 -77 0
-80 -78 0
-80 -79 0
80 78 79 0
81 -14 0
81 80 0
-81 14 -80 0
-82 14 0
-82 -80 0
82 -14 80 0
-83 81 0
-83 -82 0
83 -81 82 0
-84 4 0
-84 83 0
84 -4 -83 0
-85 -4 0
-85 -83 0
85 4 83 0
-86 -84 0
-86 -85 0
86 84 85 0
-87 75 0
-87 86 0
87 -75 -86 0
-88 -14 0
-88 -78 0
88 14 78 0
89 -79 0
89 -88 0
-89 79 88 0
-90 25 0
-90 -89 0
90 -25 89 0
-91 -25 0
-91 89 0
91 25 -89 0
-92 -90 0
-92 -91 0
92 90 91 0
93 -15 0
93 92 0
-93 15 -92 0
-94 15 0
-94 -92 0
94 -15 92 0
-95 93 0
-95 -94 0
95 -93 94 0
-96 5 0
-96 95 0
96 -5 -95 0
-97 -5 0
-97 -95 0
97 5 95 0
-98 -96 0
-98 -97 0
98 96 97 0
-99 87 0
-99 98 0
99 -87 -98 0
-100 -15 0
-100 -90 0
100 15 90 0
101 -91 0
101 -100 0
-101 91 100 0
-102 26 0
-102 -101 0
102 -26 101 0
-103 -26 0
-103 101 0
103 26 -101 0
-104 -102 0
-104 -103 0
104 102 103 0
105 -16 0
105 104 0
-105 16 -104 0
-106 16 0
-106 -104 0
106 -16 104 0
-107 105 0
-107 -106 0
107 -105 106 0
-108 6 0
-108 107 0
108 -6 -107 0
-109 -6 0
-109 -107 0
109 6 107 0
-110 -108 0
-110 -109 0
110 108 109 0
-111 99 0
-111 110 0
111 -99 -110 0
-112 -16 0
-112 -102 0
112 16 102 0
113 -103 0
113 -112 0
-113 103 112 0
-114 27 0
-114 -113 0
114 -27 113 0
-115 -27 0
-115 113 0
115 27 -113 0
-116 -114 0
-116 -115 0
116 114 115 0
117 -17 0
117 116 0
-117 17 -116 0
-118 17 0
-118 -116 0
118 -17 116 0
-119 117 0
-119 -118 0
119 -117 118 0
-120 7 0
-120 119 0
120 -7 -119 0
-121 -7 0
-121 -119 0
121 7 119 0
-122 -120 0
-122 -121 0
122 120 121 0
-123 111 0
-123 122 0
123 -111 -122 0
-124 -17 0
-124 -114 0
124 17 114 0
125 -115 0
125 -124 0
-125 115 124 0
-126 28 0
-126 -125 0
126 -28 125 0
-127 -28 0
-127 125 0
127 28 -125 0
-128 -126 0
-128 -127 0
128 126 127 0
129 -18 0
129 128 0
-129 18 -128 0
-130 18 0
-130 -128 0
130 -18 128 0
-131 129 0
-131 -130 0
131 -129 130 0
-132 8 0
-132 131 0
132 -8 -131 0
-133 -8 0
-133 -131 0
133 8 131 0
-134 -132 0
-134 -133 0
134 132 133 0
-135 123 0
-135 134 0
135 -123 -134 0
-136 -18 0
-136 -126 0
136 18 126 0
137 -127 0
137 -136 0
-137 127 136 0
-138 29 0
-138 -137 0
138 -29 137 0
-139 -29 0
-139 137 0
139 29 -137 0
-140 -138 0
-140 -139 0
140 138 139 0
141 -19 0
141 140 0
-141 19 -140 0
-142 19 0
-142 -140 0
142 -19 140 0
-143 141 0
-143 -142 0
143 -141 142 0
-144 9 0
-144 143 0
144 -9 -143 0
-145 -9 0
-145 -143 0
145 9 143 0
-146 -144 0
-146 -145 0
146 144 145 0
-147 135 0
-147 146 0
147 -135 -146 0
-148 -19 0
-148 -138 0
148 19 138 0
149 -139 0
149 -148 0
-149 139 148 0
-150 -30 0
-150 149 0
150 30 -149 0
-151 30 0
-151 -149 0
151 -30 149 0
-152 -150 0
-152 -151 0
152 150 151 0
153 -20 0
153 152 0
-153 20 -152 0
-154 20 0
-154 -152 0
154 -20 152 0
-155 153 0
-155 -154 0
155 -153 154 0
-156 10 0
-156 155 0
156 -10 -155 0
-157 -10 0
-157 -155 0
157 10 155 0
-158 -156 0
-158 -157 0
158 156 157 0
-159 147 0
-159 158 0
159 -147 -158 0
-160 -34 0
-160 -159 0
160 34 159 0
-161 34 0
-161 159 0
161 -34 -159 0
-162 -160 0
-162 -161 0
162 160 161 0
-163 33 0
-163 162 0
163 -33 -162 0
-164 163 0
-164 45 0
164 -163 -45 0
-165 32 0
-165 31 0
165 -32 -31 0
-166 35 0
-166 165 0
166 -35 -165 0
-167 -32 0
-167 -31 0
167 32 31 0
-168 -35 0
-168 167 0
168 35 -167 0
-169 -166 0
-169 -168 0
169 166 168 0
-170 -164 0
-170 169 0
170 164 -169 0
-171 -47 0
-171 170 0
171 47 -170 0
171 0
579 0
31 -580 0
-33 -580 0
-31 33 580 0
-31 -581 0
33 -581 0
31 -33 581 0
-37 -582 0
-38 -582 0
37 38 582 0
32 -583 0
-34 -583 0
-32 34 583 0
-32 -584 0
34 -584 0
32 -34 584 0
-40 -585 0
-41 -585 0
40 41 585 0
39 -586 0
42 -586 0
-39 -42 586 0
-44 -587 0
-45 -587 0
44 45 587 0
11 -588 0
21 -588 0
-11 -21 588 0
22 -589 0
48 -589 0
-22 -48 589 0
-22 -590 0
-48 -590 0
22 48 590 0
-49 -591 0
-50 -591 0
49 50 591 0
-12 -592 0
51 -592 0
12 -51 592 0
12 -593 0
-51 -593 0
-12 51 593 0
52 -594 0
-53 -594 0
-52 53 594 0
-55 -595 0
-56 -595 0
55 56 595 0
-11 -596 0
-21 -596 0
11 21 596 0
-48 -597 0
-58 -597 0
48 58 597 0
-60 -598 0
-61 -598 0
60 61 598 0
57 -599 0
62 -599 0
-57 -62 599 0
-12 -600 0
-49 -600 0
12 49 600 0
-50 -601 0
-64 -601 0
50 64 601 0
23 -602 0
-65 -602 0
-23 65 602 0
-23 -603 0
65 -603 0
23 -65 603 0
-66 -604 0
-67 -604 0
66 67 604 0
-13 -605 0
68 -605 0
13 -68 605 0
13 -606 0
-68 -606 0
-13 68 606 0
69 -607 0
-70 -607 0
-69 70 607 0
-72 -608 0
-73 -608 0
72 73 608 0
63 -609 0
74 -609 0
-63 -74 609 0
-13 -610 0
-66 -610 0
13 66 610 0
-67 -611 0
-76 -611 0
67 76 611 0
24 -612 0
-77 -612 0
-24 77 612 0
-24 -613 0
77 -613 0
24 -77 613 0
-78 -614 0
-79 -614 0
78 79 614 0
-14 -615 0
80 -615 0
14 -80 615 0
14 -616 0
-80 -616 0
-14 80 616 0
81 -617 0
-82 -617 0
-81 82 617 0
-84 -618 0
-85 -618 0
84 85 618 0
75 -619 0
86 -619 0
-75 -86 619 0
-14 -620 0
-78 -620 0
14 78 620 0
-79 -621 0
-88 -621 0
79 88 621 0
25 -622 0
-89 -622 0
-25 89 622 0
-25 -623 0
89 -623 0
25 -89 623 0
-90 -624 0
-91 -624 0
90 91 624 0
-15 -625 0
92 -625 0
15 -92 625 0
15 -626 0
-92 -626 0
-15 92 626 0
93 -627 0
-94 -627 0
-93 94 627 0
-96 -628 0
-97 -628 0
96 97 628 0
87 -629 0
98 -629 0
-87 -98 629 0
-15 -630 0
-90 -630 0
15 90 630 0
-91 -631 0
-100 -631 0
91 100 631 0
26 -632 0
-101 -632 0
-26 101 632 0
-26 -633 0
101 -633 0
26 -101 633 0
-102 -634 0
-103 -634 0
102 103 634 0
-16 -635 0
104 -635 0
16 -104 635 0
16 -636 0
-104 -636 0
-16 104 636 0
105 -637 0
-106 -637 0
-105 106 637 0
-108 -638 0
-109 -638 0
108 109 638 0
99 -639 0
110 -639 0
-99 -110 639 0
-16 -640 0
-102 -640 0
16 102 640 0
-103 -641 0
-112 -641 0
103 112 641 0
27 -642 0
-113 -642 0
-27 113 642 0
-27 -643 0
113 -643 0
27 -113 643 0
-114 -644 0
-115 -644 0
114 115 644 0
-17 -645 0
116 -645 0
17 -116 645 0
17 -646 0
-116 -646 0
-17 116 646 0
117 -647 0
-118 -647 0
-117 118 647 0
-120 -648 0
-121 -648 0
120 121 648 0
111 -649 0
122 -649 0
-111 -122 649 0
-17 -650 0
-114 -650 0
17 114 650 0
-115 -651 0
-124 -651 0
115 124 651 0
28 -652 0
-125 -652 0
-28 125 652 0
-28 -653 0
125 -653 0
28 -125 653 0
-126 -654 0
-127 -654 0
126 127 654 0
-18 -655 0
128 -655 0
18 -128 655 0
18 -656 0
-128 -656 0
-18 128 656 0
129 -657 0
-130 -657 0
-129 130 657 0
-132 -658 0
-133 -658 0
132 133 658 0
123 -659 0
134 -659 0
-123 -134 659 0
-18 -660 0
-126 -660 0
18 126 660 0
-127 -661 0
-136 -661 0
127 136 661 0
29 -662 0
-137 -662 0
-29 137 662 0
-29 -663 0
137 -663 0
29 -137 663 0
-138 -664 0
-139 -664 0
138 139 664 0
-19 -665 0
140 -665 0
19 -140 665 0
19 -666 0
-140 -666 0
-19 140 666 0
141 -667 0
-142 -667 0
-141 142 667 0
-144 -668 0
-145 -668 0
144 145 668 0
135 -669 0
146 -669 0
-135 -146 669 0
-19 -670 0
-138 -670 0
19 138 670 0
-139 -671 0
-148 -671 0
139 148 671 0
-30 -672 0
149 -672 0
30 -149 672 0
30 -673 0
-149 -673 0
-30 149 673 0
-150 -674 0
-151 -674 0
150 151 674 0
-20 -675 0
152 -675 0
20 -152 675 0
20 -676 0
-152 -676 0
-20 152 676 0
153 -677 0
-154 -677 0
-153 154 677 0
-156 -678 0
-157 -678 0
156 157 678 0
147 -679 0
158 -679 0
-147 -158 679 0
-34 -680 0
-159 -680 0
34 159 680 0
34 -681 0
159 -681 0
-34 -159 681 0
-160 -682 0
-161 -682 0
160 161 682 0
33 -683 0
162 -683 0
-33 -162 683 0
31 -684 0
32 -684 0
-31 -32 684 0
-31 -685 0
-32 -685 0
31 32 685 0
